interdiction/MCDM/NO_CORR/GEN_FROM_60/10_ITEMS_1000_GEN/K5011W16.KNP.mps
NAME          BLANK   
ROWS
 N  OBJROW
 L  R0000000
COLUMNS
    C0000000  OBJROW     -859.         R0000000  498.        
    C0000001  OBJROW     -312.         R0000000  823.        
    C0000002  OBJROW     -606.         R0000000  515.        
    C0000003  OBJROW     -875.         R0000000  853.        
    C0000004  OBJROW     -651.         R0000000  45.         
    C0000005  OBJROW     -447.         R0000000  165.        
    C0000006  OBJROW     -916.         R0000000  404.        
    C0000007  OBJROW     -79.          R0000000  23.         
    C0000008  OBJROW     -932.         R0000000  116.        
    C0000009  OBJROW     -887.         R0000000  183.        
    C0000010  OBJROW     -410.         R0000000  876.        
RHS
    RHS       R0000000  13852.      
BOUNDS
 BV BOUND     C0000000  1.          
 BV BOUND     C0000001  1.          
 BV BOUND     C0000002  1.          
 BV BOUND     C0000003  1.          
 BV BOUND     C0000004  1.          
 BV BOUND     C0000005  1.          
 BV BOUND     C0000006  1.          
 BV BOUND     C0000007  1.          
 BV BOUND     C0000008  1.          
 BV BOUND     C0000009  1.          
 BV BOUND     C0000010  1.          
ENDATA
