data/MCDM/NO_CORR/GEN_FROM_60/10_ITEMS_1000_GEN/K5011W16.KNP.txt
N 11
M 12
LC 11
LC 12
LC 13
LC 14
LC 15
LC 16
LC 17
LC 18
LC 19
LC 20
LC 21
LR 1
LR 2
LR 3
LR 4
LR 5
LR 6
LR 7
LR 8
LR 9
LR 10
LR 11
LR 12
LO -859
LO -312
LO -606
LO -875
LO -651
LO -447
LO -916
LO -79
LO -932
LO -887
LO -410
OS 1
IC 683
IC 198
IC 30
IC 468
IC 163
IC 257
IC 600
IC 579
IC 926
IC 477
IC 166
IB 2274
